molecule {
0 1
O
H 1 R
H 1 R 2 A
R = 0.96
A = 104.5
}

memory 800mb

set {
    basis 6-31G**
    reference rhf
    precision double-precision
}

energy('ccsd')
